proyfinal/src/viki/013/experimentInOfficeAgust.take6.output/fedd6064-4573-4f39-ad2c-b1932eed0833.als.dat
{'cnf.clauses': '118081',
 'cnf.totvars': '69608',
 'conflict literals': '49',
 'conflicts': '21',
 'decisions': '9713',
 'memused.mb': '15.27',
 'outcome': 'UNSAT',
 'propagations': '36502',
 'restarts': '1',
 'solver.msecs': 33,
 'task.msecs': 145}
