proyfinal/src/viki/013/experimentInOfficeAgust.take6.output/fedd6064-4573-4f39-ad2c-b1932eed0833.als.out
Reading from standard input... Use '--help' for help.
============================[ Problem Statistics ]=============================
|                                                                             |
|  Number of variables:         69608                                         |
|  Number of clauses:          118081                                         |
|  Parse time:                   0.02 s                                       |
|                                                                             |
============================[ Search Statistics ]==============================
| Conflicts |          ORIGINAL         |          LEARNT          | Progress |
|           |    Vars  Clauses Literals |    Limit  Clauses Lit/Cl |          |
===============================================================================
===============================================================================
restarts              : 1
conflicts             : 21             (618 /sec)
decisions             : 9713           (0.00 % random) (285828 /sec)
propagations          : 36502          (1074157 /sec)
conflict literals     : 49             (3.92 % deleted)
Memory used           : 15.27 MB
CPU time              : 0.033982 s

UNSATISFIABLE
